p edge 87 406
e 1 0
e 2 0
e 2 1
e 3 0
e 3 1
e 3 2
e 4 0
e 4 1
e 4 2
e 4 3
e 5 0
e 5 1
e 5 2
e 5 3
e 5 4
e 6 0
e 6 1
e 6 2
e 6 3
e 6 4
e 6 5
e 7 3
e 7 4
e 7 5
e 7 6
e 8 1
e 8 2
e 8 3
e 8 5
e 8 6
e 8 7
e 9 3
e 9 5
e 9 6
e 9 7
e 9 8
e 10 1
e 10 2
e 10 3
e 10 5
e 10 6
e 10 7
e 10 8
e 10 9
e 11 1
e 11 2
e 11 3
e 11 5
e 11 6
e 11 7
e 11 8
e 11 9
e 11 10
e 12 6
e 12 7
e 13 1
e 13 2
e 13 3
e 13 5
e 13 6
e 13 7
e 13 8
e 13 9
e 13 10
e 13 11
e 13 12
e 14 6
e 14 7
e 15 6
e 15 7
e 15 14
e 16 6
e 16 7
e 16 14
e 16 15
e 17 5
e 17 6
e 17 7
e 17 14
e 17 16
e 18 5
e 18 6
e 18 7
e 18 17
e 19 5
e 19 6
e 19 7
e 19 17
e 19 18
e 20 5
e 20 6
e 20 7
e 20 17
e 20 18
e 20 19
e 21 3
e 21 5
e 21 6
e 21 7
e 21 8
e 21 9
e 21 10
e 21 11
e 21 12
e 21 13
e 21 14
e 21 16
e 21 17
e 21 18
e 21 19
e 21 20
e 22 5
e 22 6
e 22 7
e 23 5
e 23 6
e 23 7
e 24 5
e 24 6
e 24 7
e 24 18
e 25 6
e 25 7
e 26 1
e 26 3
e 26 5
e 26 6
e 26 7
e 26 8
e 26 9
e 26 10
e 26 11
e 26 12
e 26 13
e 26 14
e 26 15
e 26 16
e 26 17
e 26 18
e 26 19
e 26 20
e 26 21
e 27 6
e 27 7
e 27 12
e 27 14
e 27 15
e 27 16
e 27 26
e 28 6
e 28 7
e 28 12
e 28 13
e 28 14
e 28 21
e 28 26
e 28 27
e 29 2
e 29 5
e 29 6
e 29 7
e 29 24
e 30 5
e 30 6
e 30 7
e 30 14
e 30 15
e 30 16
e 30 18
e 30 24
e 30 26
e 30 27
e 30 29
e 31 5
e 31 6
e 31 7
e 31 12
e 31 13
e 31 14
e 31 15
e 31 16
e 31 21
e 31 23
e 31 25
e 31 26
e 31 28
e 31 29
e 31 30
e 32 6
e 32 7
e 32 29
e 32 30
e 32 31
e 33 2
e 33 6
e 33 7
e 33 29
e 33 30
e 34 5
e 34 6
e 34 7
e 34 29
e 34 30
e 35 6
e 35 14
e 35 16
e 35 26
e 35 27
e 35 28
e 36 6
e 36 18
e 36 24
e 36 35
e 37 1
e 37 2
e 37 3
e 37 6
e 37 8
e 37 10
e 37 11
e 37 13
e 38 1
e 38 2
e 38 3
e 38 4
e 38 5
e 38 6
e 38 8
e 38 10
e 38 11
e 38 13
e 38 37
e 39 3
e 39 6
e 40 1
e 40 3
e 40 6
e 40 39
e 41 1
e 41 2
e 41 3
e 41 4
e 41 5
e 41 6
e 41 21
e 41 39
e 41 40
e 42 6
e 42 13
e 43 6
e 43 13
e 43 29
e 43 30
e 43 42
e 44 6
e 44 42
e 45 6
e 46 6
e 46 45
e 47 6
e 47 41
e 48 1
e 48 6
e 48 11
e 48 13
e 48 21
e 48 28
e 48 39
e 48 40
e 48 41
e 48 47
e 49 2
e 49 6
e 49 29
e 49 33
e 50 2
e 50 6
e 50 29
e 50 33
e 50 49
e 51 6
e 51 49
e 51 50
e 52 6
e 52 18
e 53 6
e 53 21
e 53 37
e 53 41
e 54 6
e 54 37
e 55 6
e 55 21
e 55 37
e 55 41
e 55 53
e 55 54
e 56 17
e 56 21
e 57 17
e 57 21
e 57 56
e 58 17
e 58 21
e 58 56
e 58 57
e 59 17
e 59 21
e 59 56
e 59 57
e 59 58
e 60 6
e 60 41
e 61 6
e 61 41
e 61 60
e 62 6
e 62 18
e 62 24
e 62 36
e 63 6
e 63 18
e 63 24
e 63 36
e 63 62
e 64 6
e 64 21
e 64 26
e 64 28
e 65 6
e 65 21
e 65 26
e 65 28
e 65 64
e 66 6
e 66 21
e 66 26
e 66 28
e 66 64
e 66 65
e 67 6
e 67 21
e 67 26
e 67 28
e 67 64
e 67 65
e 67 66
e 68 6
e 68 21
e 68 26
e 68 28
e 68 64
e 68 65
e 68 66
e 68 67
e 69 6
e 69 21
e 69 26
e 69 28
e 69 64
e 69 65
e 69 66
e 69 67
e 69 68
e 70 6
e 70 21
e 70 53
e 70 58
e 70 59
e 71 6
e 71 21
e 71 28
e 71 41
e 71 48
e 71 53
e 71 55
e 71 70
e 72 5
e 72 6
e 72 30
e 72 34
e 73 6
e 74 6
e 75 6
e 75 53
e 75 70
e 75 71
e 76 6
e 76 22
e 77 6
e 77 29
e 77 43
e 78 6
e 78 8
e 78 9
e 78 10
e 78 11
e 78 13
e 79 6
e 80 6
e 81 6
e 82 6
e 83 6
e 84 6
e 85 6
e 86 6
